; SWAP2 SWAP1 SWAP2 OR SWAP1 SWAP2 => SWAP1 SWAP3 SWAP2 OR SWAP1
(set-option :produce-proofs true)
; 
(set-info :status unknown)
(declare-fun storage_t ((_ BitVec 256) (_ BitVec 256) (_ BitVec 256) (_ BitVec 256) Int (_ BitVec 256)) (_ BitVec 256))
(declare-fun storage_s ((_ BitVec 256) (_ BitVec 256) (_ BitVec 256) (_ BitVec 256) Int (_ BitVec 256)) (_ BitVec 256))
(declare-fun exc_halt_t (Int) Bool)
(declare-fun exc_halt_s (Int) Bool)
(declare-fun stack_t ((_ BitVec 256) (_ BitVec 256) (_ BitVec 256) (_ BitVec 256) Int (_ BitVec 6)) (_ BitVec 256))
(declare-fun stack_s ((_ BitVec 256) (_ BitVec 256) (_ BitVec 256) (_ BitVec 256) Int (_ BitVec 6)) (_ BitVec 256))
(declare-fun sc_t (Int) (_ BitVec 6))
(declare-fun sc_s (Int) (_ BitVec 6))
(declare-fun used_gas_t ((_ BitVec 256) (_ BitVec 256) (_ BitVec 256) (_ BitVec 256) Int) Int)
(declare-fun used_gas_s ((_ BitVec 256) (_ BitVec 256) (_ BitVec 256) (_ BitVec 256) Int) Int)
(assert
 (exists ((x_0 (_ BitVec 256)) (x_1 (_ BitVec 256)) (x_2 (_ BitVec 256)) (x_3 (_ BitVec 256)) )(let (($x1675 (forall ((w (_ BitVec 256)) )(let ((?x4143 (storage_t x_0 x_1 x_2 x_3 5 w)))
 (let ((?x7809 (storage_s x_0 x_1 x_2 x_3 6 w)))
 (= ?x7809 ?x4143))))
 ))
 (let (($x886 (exc_halt_t 5)))
 (let (($x772 (exc_halt_s 6)))
 (let (($x889 (= $x772 $x886)))
 (let (($x10122 (forall ((n (_ BitVec 6)) )(let ((?x8292 (stack_t x_0 x_1 x_2 x_3 5 n)))
 (let ((?x3567 (stack_s x_0 x_1 x_2 x_3 6 n)))
 (let (($x11288 (= ?x3567 ?x8292)))
 (or (bvsle (sc_t 5) n) $x11288)))))
 ))
 (let ((?x919 (sc_t 5)))
 (let ((?x926 (sc_s 6)))
 (let (($x929 (= ?x926 ?x919)))
 (let ((?x5506 (used_gas_t x_0 x_1 x_2 x_3 0)))
 (let ((?x8236 (used_gas_s x_0 x_1 x_2 x_3 0)))
 (let (($x5836 (= ?x8236 ?x5506)))
 (let (($x10116 (forall ((w (_ BitVec 256)) )(let ((?x4175 (storage_t x_0 x_1 x_2 x_3 0 w)))
 (let ((?x316 (storage_s x_0 x_1 x_2 x_3 0 w)))
 (= ?x316 ?x4175))))
 ))
 (let (($x56 (exc_halt_t 0)))
 (let (($x57 (exc_halt_s 0)))
 (let (($x58 (= $x57 $x56)))
 (let (($x7742 (forall ((n (_ BitVec 6)) )(let ((?x63 (sc_t 0)))
 (let (($x9192 (bvsle ?x63 n)))
 (let ((?x4637 (stack_t x_0 x_1 x_2 x_3 0 n)))
 (let ((?x7646 (stack_s x_0 x_1 x_2 x_3 0 n)))
 (let (($x387 (= ?x7646 ?x4637)))
 (or $x387 $x9192)))))))
 ))
 (let ((?x63 (sc_t 0)))
 (let ((?x72 (sc_s 0)))
 (let (($x73 (= ?x72 ?x63)))
 (let (($x6058 (= $x886 (or (exc_halt_t 4) (not (bvsle (_ bv0 6) (bvadd (_ bv62 6) (sc_t 4))))))))
 (let (($x2126 (forall ((w (_ BitVec 256)) )(let ((?x10794 (storage_t x_0 x_1 x_2 x_3 4 w)))
 (let ((?x4143 (storage_t x_0 x_1 x_2 x_3 5 w)))
 (= ?x4143 ?x10794))))
 ))
 (let (($x6583 (forall ((n (_ BitVec 6)) )(let ((?x3856 (stack_t x_0 x_1 x_2 x_3 4 n)))
 (let ((?x8292 (stack_t x_0 x_1 x_2 x_3 5 n)))
 (or (bvsle (bvadd (_ bv62 6) (sc_t 4)) n) (= ?x8292 ?x3856)))))
 ))
 (let (($x9345 (= (used_gas_t x_0 x_1 x_2 x_3 5) (+ 3 (used_gas_t x_0 x_1 x_2 x_3 4)))))
 (let ((?x7576 (stack_t x_0 x_1 x_2 x_3 4 (bvadd (_ bv63 6) (sc_t 4)))))
 (let (($x5283 (= (stack_t x_0 x_1 x_2 x_3 5 (bvadd (_ bv63 6) ?x919)) (stack_t x_0 x_1 x_2 x_3 4 (bvadd (_ bv62 6) (sc_t 4))))))
 (let (($x7722 (exc_halt_t 4)))
 (let (($x7247 (= $x7722 (or (exc_halt_t 3) (not (bvsle (_ bv0 6) (bvadd (_ bv62 6) (sc_t 3))))))))
 (let (($x10329 (forall ((w (_ BitVec 256)) )(let ((?x4807 (storage_t x_0 x_1 x_2 x_3 3 w)))
 (let ((?x10794 (storage_t x_0 x_1 x_2 x_3 4 w)))
 (= ?x10794 ?x4807))))
 ))
 (let (($x4801 (forall ((n (_ BitVec 6)) )(let ((?x9966 (stack_t x_0 x_1 x_2 x_3 3 n)))
 (let ((?x3856 (stack_t x_0 x_1 x_2 x_3 4 n)))
 (or (= ?x3856 ?x9966) (bvsle (bvadd (_ bv62 6) (sc_t 3)) n)))))
 ))
 (let ((?x2609 (used_gas_t x_0 x_1 x_2 x_3 4)))
 (let ((?x6438 (sc_t 3)))
 (let ((?x7398 (bvadd (_ bv62 6) ?x6438)))
 (let ((?x1704 (stack_t x_0 x_1 x_2 x_3 3 ?x7398)))
 (let ((?x5086 (bvadd (_ bv63 6) ?x6438)))
 (let ((?x9693 (stack_t x_0 x_1 x_2 x_3 3 ?x5086)))
 (let (($x6783 (exc_halt_t 3)))
 (let (($x2063 (= $x6783 (or (exc_halt_t 2) (not (bvsle (_ bv0 6) (bvadd (_ bv61 6) (sc_t 2))))))))
 (let (($x291 (forall ((w (_ BitVec 256)) )(let ((?x180 (storage_t x_0 x_1 x_2 x_3 2 w)))
 (let ((?x4807 (storage_t x_0 x_1 x_2 x_3 3 w)))
 (= ?x4807 ?x180))))
 ))
 (let (($x6582 (forall ((n (_ BitVec 6)) )(let ((?x5494 (stack_t x_0 x_1 x_2 x_3 2 n)))
 (let ((?x9966 (stack_t x_0 x_1 x_2 x_3 3 n)))
 (or (= ?x9966 ?x5494) (bvsle (bvadd (_ bv61 6) (sc_t 2)) n)))))
 ))
 (let ((?x8640 (used_gas_t x_0 x_1 x_2 x_3 3)))
 (let ((?x2714 (sc_t 2)))
 (let ((?x5873 (bvadd (_ bv62 6) ?x2714)))
 (let ((?x5886 (stack_t x_0 x_1 x_2 x_3 2 ?x5873)))
 (let ((?x9423 (bvadd (_ bv63 6) ?x2714)))
 (let ((?x6642 (stack_t x_0 x_1 x_2 x_3 2 ?x9423)))
 (let (($x4835 (exc_halt_t 2)))
 (let (($x9681 (= $x4835 (or (exc_halt_t 1) (not (bvsle (_ bv0 6) (bvadd (_ bv60 6) (sc_t 1))))))))
 (let (($x2298 (forall ((w (_ BitVec 256)) )(let ((?x989 (storage_t x_0 x_1 x_2 x_3 1 w)))
 (let ((?x180 (storage_t x_0 x_1 x_2 x_3 2 w)))
 (= ?x180 ?x989))))
 ))
 (let (($x7417 (forall ((n (_ BitVec 6)) )(let ((?x8347 (sc_t 1)))
 (let ((?x1541 (bvadd (_ bv60 6) ?x8347)))
 (let (($x6450 (bvsle ?x1541 n)))
 (let ((?x3180 (stack_t x_0 x_1 x_2 x_3 1 n)))
 (let ((?x5494 (stack_t x_0 x_1 x_2 x_3 2 n)))
 (or (= ?x5494 ?x3180) $x6450)))))))
 ))
 (let ((?x8347 (sc_t 1)))
 (let (($x6528 (= ?x2714 ?x8347)))
 (let ((?x9916 (used_gas_t x_0 x_1 x_2 x_3 2)))
 (let ((?x863 (bvadd (_ bv61 6) ?x2714)))
 (let ((?x1005 (stack_t x_0 x_1 x_2 x_3 2 ?x863)))
 (let ((?x4092 (bvadd (_ bv63 6) ?x8347)))
 (let ((?x8796 (stack_t x_0 x_1 x_2 x_3 1 ?x4092)))
 (let (($x5872 (forall ((w (_ BitVec 256)) )(let ((?x4175 (storage_t x_0 x_1 x_2 x_3 0 w)))
 (let ((?x989 (storage_t x_0 x_1 x_2 x_3 1 w)))
 (= ?x989 ?x4175))))
 ))
 (let (($x4893 (forall ((n (_ BitVec 6)) )(let ((?x4637 (stack_t x_0 x_1 x_2 x_3 0 n)))
 (let ((?x3180 (stack_t x_0 x_1 x_2 x_3 1 n)))
 (or (bvsle (bvadd (_ bv62 6) (sc_t 0)) n) (= ?x3180 ?x4637)))))
 ))
 (let (($x2906 (= ?x8347 ?x63)))
 (let ((?x2952 (bvadd (_ bv62 6) ?x8347)))
 (let ((?x5626 (stack_t x_0 x_1 x_2 x_3 1 ?x2952)))
 (let (($x7909 (= $x772 (or (exc_halt_s 5) (not (bvsle (_ bv0 6) (bvadd (_ bv61 6) (sc_s 5))))))))
 (let (($x1392 (forall ((w (_ BitVec 256)) )(let ((?x4652 (storage_s x_0 x_1 x_2 x_3 5 w)))
 (let ((?x7809 (storage_s x_0 x_1 x_2 x_3 6 w)))
 (= ?x7809 ?x4652))))
 ))
 (let (($x4193 (forall ((n (_ BitVec 6)) )(let ((?x4672 (stack_s x_0 x_1 x_2 x_3 5 n)))
 (let ((?x3567 (stack_s x_0 x_1 x_2 x_3 6 n)))
 (or (bvsle (bvadd (_ bv61 6) (sc_s 5)) n) (= ?x3567 ?x4672)))))
 ))
 (let (($x2409 (= (used_gas_s x_0 x_1 x_2 x_3 6) (+ 3 (used_gas_s x_0 x_1 x_2 x_3 5)))))
 (let ((?x4319 (sc_s 5)))
 (let ((?x8326 (bvadd (_ bv62 6) ?x4319)))
 (let ((?x11527 (stack_s x_0 x_1 x_2 x_3 5 ?x8326)))
 (let ((?x5401 (bvadd (_ bv63 6) ?x4319)))
 (let ((?x65 (stack_s x_0 x_1 x_2 x_3 5 ?x5401)))
 (let (($x10208 (= (stack_s x_0 x_1 x_2 x_3 6 (bvadd (_ bv63 6) ?x926)) (stack_s x_0 x_1 x_2 x_3 5 (bvadd (_ bv61 6) ?x4319)))))
 (let (($x11317 (exc_halt_s 5)))
 (let (($x6879 (= $x11317 (or (exc_halt_s 4) (not (bvsle (_ bv0 6) (bvadd (_ bv62 6) (sc_s 4))))))))
 (let (($x6735 (forall ((w (_ BitVec 256)) )(let ((?x8922 (storage_s x_0 x_1 x_2 x_3 4 w)))
 (let ((?x4652 (storage_s x_0 x_1 x_2 x_3 5 w)))
 (= ?x4652 ?x8922))))
 ))
 (let (($x10335 (forall ((n (_ BitVec 6)) )(let ((?x8737 (stack_s x_0 x_1 x_2 x_3 4 n)))
 (let ((?x4672 (stack_s x_0 x_1 x_2 x_3 5 n)))
 (or (= ?x4672 ?x8737) (bvsle (bvadd (_ bv62 6) (sc_s 4)) n)))))
 ))
 (let ((?x4305 (sc_s 4)))
 (let (($x201 (= ?x4319 ?x4305)))
 (let ((?x9810 (used_gas_s x_0 x_1 x_2 x_3 5)))
 (let (($x7172 (exc_halt_s 4)))
 (let (($x7653 (= $x7172 (or (exc_halt_s 3) (not (bvsle (_ bv0 6) (bvadd (_ bv62 6) (sc_s 3))))))))
 (let (($x11070 (forall ((w (_ BitVec 256)) )(let ((?x1279 (storage_s x_0 x_1 x_2 x_3 3 w)))
 (let ((?x8922 (storage_s x_0 x_1 x_2 x_3 4 w)))
 (= ?x8922 ?x1279))))
 ))
 (let (($x2447 (forall ((n (_ BitVec 6)) )(let ((?x275 (sc_s 3)))
 (let ((?x2146 (bvadd (_ bv62 6) ?x275)))
 (let (($x7504 (bvsle ?x2146 n)))
 (let ((?x5910 (stack_s x_0 x_1 x_2 x_3 3 n)))
 (let ((?x8737 (stack_s x_0 x_1 x_2 x_3 4 n)))
 (or (= ?x8737 ?x5910) $x7504)))))))
 ))
 (let ((?x7750 (used_gas_s x_0 x_1 x_2 x_3 4)))
 (let ((?x275 (sc_s 3)))
 (let ((?x2146 (bvadd (_ bv62 6) ?x275)))
 (let ((?x8630 (stack_s x_0 x_1 x_2 x_3 3 ?x2146)))
 (let ((?x5064 (bvadd (_ bv63 6) ?x275)))
 (let ((?x9929 (stack_s x_0 x_1 x_2 x_3 3 ?x5064)))
 (let ((?x9660 (bvadd (_ bv63 6) ?x4305)))
 (let ((?x5732 (stack_s x_0 x_1 x_2 x_3 4 ?x9660)))
 (let (($x292 (exc_halt_s 3)))
 (let (($x1524 (= $x292 (or (exc_halt_s 2) (not (bvsle (_ bv0 6) (bvadd (_ bv61 6) (sc_s 2))))))))
 (let (($x10893 (forall ((w (_ BitVec 256)) )(let ((?x6896 (storage_s x_0 x_1 x_2 x_3 2 w)))
 (let ((?x1279 (storage_s x_0 x_1 x_2 x_3 3 w)))
 (= ?x1279 ?x6896))))
 ))
 (let (($x1234 (forall ((n (_ BitVec 6)) )(let ((?x7058 (stack_s x_0 x_1 x_2 x_3 2 n)))
 (let ((?x5910 (stack_s x_0 x_1 x_2 x_3 3 n)))
 (let ((?x218 (sc_s 2)))
 (let ((?x9942 (bvadd (_ bv61 6) ?x218)))
 (let (($x2636 (bvsle ?x9942 n)))
 (or $x2636 (= ?x5910 ?x7058))))))))
 ))
 (let ((?x218 (sc_s 2)))
 (let (($x2085 (= ?x275 ?x218)))
 (let ((?x801 (used_gas_s x_0 x_1 x_2 x_3 3)))
 (let ((?x3813 (bvadd (_ bv63 6) ?x218)))
 (let ((?x7632 (stack_s x_0 x_1 x_2 x_3 2 ?x3813)))
 (let (($x247 (exc_halt_s 2)))
 (let (($x6737 (= $x247 (or (exc_halt_s 1) (not (bvsle (_ bv0 6) (bvadd (_ bv62 6) (sc_s 1))))))))
 (let (($x509 (forall ((w (_ BitVec 256)) )(let ((?x2214 (storage_s x_0 x_1 x_2 x_3 1 w)))
 (let ((?x6896 (storage_s x_0 x_1 x_2 x_3 2 w)))
 (= ?x6896 ?x2214))))
 ))
 (let (($x5391 (forall ((n (_ BitVec 6)) )(let ((?x154 (sc_s 1)))
 (let ((?x7592 (bvadd (_ bv62 6) ?x154)))
 (let (($x10517 (bvsle ?x7592 n)))
 (let ((?x576 (stack_s x_0 x_1 x_2 x_3 1 n)))
 (let ((?x7058 (stack_s x_0 x_1 x_2 x_3 2 n)))
 (or (= ?x7058 ?x576) $x10517)))))))
 ))
 (let ((?x8014 (used_gas_s x_0 x_1 x_2 x_3 2)))
 (let ((?x154 (sc_s 1)))
 (let ((?x8487 (bvadd (_ bv63 6) ?x154)))
 (let ((?x306 (stack_s x_0 x_1 x_2 x_3 1 ?x8487)))
 (let ((?x11592 (bvadd (_ bv62 6) ?x218)))
 (let ((?x6139 (stack_s x_0 x_1 x_2 x_3 2 ?x11592)))
 (let (($x10653 (forall ((w (_ BitVec 256)) )(let ((?x316 (storage_s x_0 x_1 x_2 x_3 0 w)))
 (let ((?x2214 (storage_s x_0 x_1 x_2 x_3 1 w)))
 (= ?x2214 ?x316))))
 ))
 (let (($x8398 (forall ((n (_ BitVec 6)) )(let ((?x7646 (stack_s x_0 x_1 x_2 x_3 0 n)))
 (let ((?x576 (stack_s x_0 x_1 x_2 x_3 1 n)))
 (or (bvsle (bvadd (_ bv61 6) (sc_s 0)) n) (= ?x576 ?x7646)))))
 ))
 (let (($x11369 (= ?x154 ?x72)))
 (let ((?x7592 (bvadd (_ bv62 6) ?x154)))
 (let ((?x11165 (stack_s x_0 x_1 x_2 x_3 1 ?x7592)))
 (let (($x11400 (= (stack_s x_0 x_1 x_2 x_3 1 (bvadd (_ bv61 6) ?x154)) (stack_s x_0 x_1 x_2 x_3 0 (bvadd (_ bv63 6) ?x72)))))
 (let (($x3702 (forall ((w (_ BitVec 256)) )(let ((?x316 (storage_s x_0 x_1 x_2 x_3 0 w)))
 (= ?x316 (_ bv0 256))))
 ))
 (let (($x1871 (= ?x8236 0)))
 (let (($x1141 (not $x57)))
 (let (($x8276 (= (stack_s x_0 x_1 x_2 x_3 0 (_ bv3 6)) x_3)))
 (let (($x67 (= (stack_s x_0 x_1 x_2 x_3 0 (_ bv2 6)) x_2)))
 (let (($x2797 (= (stack_s x_0 x_1 x_2 x_3 0 (_ bv1 6)) x_1)))
 (let (($x4021 (= (stack_s x_0 x_1 x_2 x_3 0 (_ bv0 6)) x_0)))
 (let (($x289 (= ?x72 (_ bv4 6))))
 (and $x289 $x4021 $x2797 $x67 $x8276 $x1141 $x1871 $x3702 (= ?x306 (stack_s x_0 x_1 x_2 x_3 0 (bvadd (_ bv61 6) ?x72))) $x11400 (= ?x11165 (stack_s x_0 x_1 x_2 x_3 0 (bvadd (_ bv62 6) ?x72))) (= (used_gas_s x_0 x_1 x_2 x_3 1) (+ 3 ?x8236)) $x11369 $x8398 $x10653 (= (exc_halt_s 1) (or $x57 (not (bvsle (_ bv0 6) (bvadd (_ bv61 6) ?x72))))) (= ?x7632 ?x11165) (= ?x6139 ?x306) (= ?x8014 (+ 3 (used_gas_s x_0 x_1 x_2 x_3 1))) (= ?x218 ?x154) $x5391 $x509 $x6737 (= ?x9929 (stack_s x_0 x_1 x_2 x_3 2 (bvadd (_ bv61 6) ?x218))) (= (stack_s x_0 x_1 x_2 x_3 3 (bvadd (_ bv61 6) ?x275)) ?x7632) (= ?x8630 ?x6139) (= ?x801 (+ 3 ?x8014)) $x2085 $x1234 $x10893 $x1524 (= ?x5732 (bvor ?x9929 ?x8630)) (= ?x7750 (+ 3 ?x801)) (= ?x4305 ?x5064) $x2447 $x11070 $x7653 (= ?x65 (stack_s x_0 x_1 x_2 x_3 4 (bvadd (_ bv62 6) ?x4305))) (= ?x11527 ?x5732) (= ?x9810 (+ 3 ?x7750)) $x201 $x10335 $x6735 $x6879 $x10208 (= (stack_s x_0 x_1 x_2 x_3 6 (bvadd (_ bv61 6) ?x926)) ?x65) (= (stack_s x_0 x_1 x_2 x_3 6 (bvadd (_ bv62 6) ?x926)) ?x11527) $x2409 (= ?x926 ?x4319) $x4193 $x1392 $x7909 (= ?x8796 (stack_t x_0 x_1 x_2 x_3 0 (bvadd (_ bv62 6) ?x63))) (= ?x5626 (stack_t x_0 x_1 x_2 x_3 0 (bvadd (_ bv63 6) ?x63))) (= (used_gas_t x_0 x_1 x_2 x_3 1) (+ 3 ?x5506)) $x2906 $x4893 $x5872 (= (exc_halt_t 1) (or $x56 (not (bvsle (_ bv0 6) (bvadd (_ bv62 6) ?x63))))) (= ?x6642 (stack_t x_0 x_1 x_2 x_3 1 (bvadd (_ bv60 6) ?x8347))) (= (stack_t x_0 x_1 x_2 x_3 2 (bvadd (_ bv60 6) ?x2714)) ?x8796) (= ?x1005 (stack_t x_0 x_1 x_2 x_3 1 (bvadd (_ bv61 6) ?x8347))) (= ?x5886 ?x5626) (= ?x9916 (+ 3 (used_gas_t x_0 x_1 x_2 x_3 1))) $x6528 $x7417 $x2298 $x9681 (= ?x9693 ?x1005) (= (stack_t x_0 x_1 x_2 x_3 3 (bvadd (_ bv61 6) ?x6438)) ?x6642) (= ?x1704 ?x5886) (= ?x8640 (+ 3 ?x9916)) (= ?x6438 ?x2714) $x6582 $x291 $x2063 (= ?x7576 (bvor ?x9693 ?x1704)) (= ?x2609 (+ 3 ?x8640)) (= (sc_t 4) ?x5086) $x4801 $x10329 $x7247 $x5283 (= (stack_t x_0 x_1 x_2 x_3 5 (bvadd (_ bv62 6) ?x919)) ?x7576) $x9345 (= ?x919 (sc_t 4)) $x6583 $x2126 $x6058 $x73 $x7742 $x58 $x10116 $x5836 (not (and $x929 $x10122 $x889 $x1675)))))))))))))))))))))))))))))))))))))))))))))))))))))))))))))))))))))))))))))))))))))))))))))))))))))))))))))))))))))))))))))))
 )
(check-sat)
(get-proof)
